c SAT problem
p wcnf 96 320
1 60 -75 0
1 -60 -3150 0
1 -60 -3135 0
1 75 3150 0
1 -75 -60 0
1 -90 -105 0
1 90 3120 0
1 -90 -3135 0
1 -105 -106 0
1 105 -3060 0
1 105 -90 0
1 3120 196 0
1 -3120 3121 0
1 3120 -150 0
1 -3120 -90 0
1 -3135 -165 0
1 -3135 -120 0
1 -3150 166 0
1 -3150 -3151 0
1 -3150 121 0
1 3150 -90 0
1 3150 3165 0
1 -3165 196 0
1 -3165 136 0
1 3165 -121 0
1 -3165 -3166 0
1 120 3105 0
1 -120 -135 0
1 120 3120 0
1 135 3105 0
1 135 3060 0
1 -150 -3105 0
1 -150 -3075 0
1 150 165 0
1 150 -3060 0
1 -150 3030 0
1 -150 -151 0
1 150 3000 0
1 -165 -166 0
1 165 -3120 0
1 -165 3090 0
1 -3060 3075 0
1 -3060 -165 0
1 -3075 195 0
1 3075 3076 0
1 3075 -105 0
1 3075 -255 0
1 3090 226 0
1 -3090 -90 0
1 -3105 -135 0
1 3105 240 0
1 -3105 3090 0
1 -3105 90 0
1 180 -3075 0
1 180 3045 0
1 -180 -3015 0
1 -180 3060 0
1 -180 3000 0
1 -195 -196 0
1 195 -3015 0
1 210 3045 0
1 -210 -3015 0
1 -210 3000 0
1 -225 3075 0
1 225 -210 0
1 225 -3060 0
1 -225 -3000 0
1 3000 -195 0
1 -3000 3015 0
1 3000 210 0
1 -3000 180 0
1 3015 -225 0
1 -3015 -195 0
1 3015 -165 0
1 3015 -300 0
1 -3015 150 0
1 3030 -225 0
1 -3030 300 0
1 3030 180 0
1 -3030 285 0
1 3045 -195 0
1 3045 300 0
1 -61 60 0
1 -76 75 0
1 76 -3315 0
1 91 3330 0
1 91 3270 0
1 -91 3240 0
1 91 -106 0
1 -91 -3345 0
1 91 3285 0
1 91 90 0
1 -106 3300 0
1 106 -3240 0
1 -106 -3345 0
1 -3300 3301 0
1 -3300 91 0
1 -3300 61 0
1 -3315 3300 0
1 3315 -76 0
1 -3315 121 0
1 121 3300 0
1 -121 -3270 0
1 136 -3270 0
1 136 -121 0
1 -151 3300 0
1 151 -3240 0
1 -151 -3150 0
1 -151 -3255 0
1 -166 165 0
1 -166 3270 0
1 166 3315 0
1 -166 3225 0
1 166 -3195 0
1 -166 -3165 0
1 -3240 196 0
1 -3240 -241 0
1 -3240 -211 0
1 3240 181 0
1 3240 151 0
1 3255 -256 0
1 3255 226 0
1 -3255 136 0
1 -3255 -106 0
1 3255 211 0
1 -3270 -106 0
1 -3270 241 0
1 -3285 3270 0
1 -3285 -241 0
1 -3285 -151 0
1 -181 3210 0
1 -181 3090 0
1 -181 180 0
1 -196 3105 0
1 196 195 0
1 196 3210 0
1 196 3090 0
1 -196 -3225 0
1 -196 -3135 0
1 211 3105 0
1 -211 -226 0
1 -211 -3210 0
1 211 -3255 0
1 -226 3136 0
1 226 -3210 0
1 226 3180 0
1 226 3121 0
1 -226 -3195 0
1 -3180 196 0
1 -3180 3181 0
1 -3180 -240 0
1 3180 -211 0
1 3180 255 0
1 -3195 -196 0
1 -3195 -211 0
1 -3195 181 0
1 -3195 151 0
1 3195 -285 0
1 3195 -255 0
1 -3210 -211 0
1 -3210 151 0
1 3225 181 0
1 3225 3226 0
1 240 -3045 0
1 -240 -3060 0
1 255 -256 0
1 255 -3180 0
1 270 -3136 0
1 -270 -3076 0
1 -270 -3180 0
1 -270 -3030 0
1 -270 285 0
1 -270 3166 0
1 -285 3106 0
1 285 3076 0
1 -285 3121 0
1 -285 3091 0
1 3121 -270 0
1 -3121 211 0
1 -3121 -285 0
1 -3136 -361 0
1 -3136 -300 0
1 3136 270 0
1 -3136 3135 0
1 3136 -315 0
1 3151 -226 0
1 3151 301 0
1 3151 240 0
1 3151 -211 0
1 3151 3166 0
1 -3166 301 0
1 3166 -270 0
1 -3166 240 0
1 300 3136 0
1 300 -3106 0
1 -300 3015 0
1 300 -3061 0
1 -300 3000 0
1 300 315 0
1 315 3076 0
1 -315 3045 0
1 315 3015 0
1 315 3091 0
1 -315 -3030 0
1 330 -3106 0
1 330 3046 0
1 330 -3121 0
1 -330 -3031 0
1 345 3136 0
1 -345 -3106 0
1 345 -3076 0
1 -345 -3016 0
1 -345 330 0
1 -345 -346 0
1 3061 -3076 0
1 -3061 -3060 0
1 -3061 -315 0
1 3076 -3075 0
1 -3076 -300 0
1 3076 405 0
1 -3091 361 0
1 3091 -300 0
1 3091 -376 0
1 3091 -345 0
1 3106 -3091 0
1 -3106 -376 0
1 3106 -345 0
1 -360 3076 0
1 -360 -3046 0
1 -360 -3016 0
1 -360 361 0
1 -360 -375 0
1 -375 360 0
1 -375 -3016 0
1 375 3001 0
1 -390 3061 0
1 -405 -390 0
1 405 -3061 0
1 3001 360 0
1 3001 -330 0
1 -3001 -405 0
1 3016 -3015 0
1 -3016 -405 0
1 3016 375 0
1 3046 -330 0
1 3046 -405 0
1 241 3331 0
1 -241 3270 0
1 -241 3240 0
1 -241 -3346 0
1 -241 3225 0
1 -256 -3301 0
1 256 -3270 0
1 256 -3240 0
1 256 -3210 0
1 -256 -3346 0
1 256 -3285 0
1 -256 3255 0
1 256 3225 0
1 256 -255 0
1 -271 3331 0
1 -286 -3331 0
1 286 -271 0
1 -286 -3286 0
1 -286 -3225 0
1 -3301 -316 0
1 3301 -286 0
1 3316 331 0
1 3316 -301 0
1 3316 -271 0
1 -3316 316 0
1 -3316 -286 0
1 3346 256 0
1 -3346 -3331 0
1 3346 -271 0
1 301 3301 0
1 301 -3210 0
1 -301 3195 0
1 -316 -3241 0
1 -316 -301 0
1 -316 -3166 0
1 -331 3301 0
1 -331 -3241 0
1 -331 -330 0
1 346 -3301 0
1 -346 -3256 0
1 -346 -3196 0
1 3241 -301 0
1 3241 346 0
1 -3256 361 0
1 3256 331 0
1 3256 301 0
1 3256 -376 0
1 3256 -316 0
1 3271 3270 0
1 -3271 -331 0
1 3271 -301 0
1 -3271 -271 0
1 3286 3271 0
1 -3286 331 0
1 3286 -301 0
1 3286 -286 0
1 361 -360 0
1 -361 3121 0
1 361 -376 0
1 376 -3211 0
1 -376 375 0
1 376 -3166 0
1 -391 -3106 0
1 -391 -406 0
1 -391 3196 0
1 406 -3106 0
1 -406 -3241 0
1 -3181 331 0
1 -3196 361 0
1 3211 3210 0
1 3211 406 0
1 -3226 -391 0
1 3226 406 0
1 -3226 3225 0
